cost: 558.89
Route 1:           0   15   31    3   43   36   12    7   49   16    4   32   44   50   29    0
Route 2:           0   23   48   25   27   19   38   24    2   28    6   37   22   46   42    8   35   17    1    0
Route 3:           0   11    5   40   39   10   45   18   14   20   26   13    0
Route 4:           0    9   34   47   41   33   30   21    0
